benchmarks/crosswords/mzn/crossword3_27.ozn
output ([(((("\n"++problem_name)++"\n")++"L:")++show(L))++"\n"]++[if problem[i,j]==0 then "*" else show(letters[fix(L[problem[i,j]])]) endif++if j==cols then "\n" else "" endif | i in 1..rows, j in 1..cols, ])++["\n"];
int: rows = 19;
int: cols = 19;
array [1..rows,1..cols] of int: problem = [|1,2,3,4,0,5,6,7,8,0,9,10,11,12,0,13,14,15,16|17,18,19,20,0,21,22,23,24,0,25,26,27,28,0,29,30,31,32|33,34,35,36,0,37,38,39,40,0,41,42,43,44,0,45,46,47,48|49,50,51,52,53,54,55,56,57,58,0,59,60,61,62,63,64,65,66|0,0,0,67,68,69,0,0,70,71,72,73,0,74,75,76,0,0,0|77,78,79,80,81,82,83,84,0,85,86,87,88,0,89,90,91,92,93|94,95,96,0,97,98,99,100,101,0,102,103,104,105,0,106,107,108,109|110,111,112,113,0,114,115,116,117,118,0,119,120,121,0,122,123,124,125|126,127,128,129,130,0,131,132,133,134,135,0,136,137,138,139,140,141,142|0,0,0,143,144,145,0,146,147,148,149,150,0,151,152,153,0,0,0|154,155,156,157,158,159,160,0,161,162,163,164,165,0,166,167,168,169,170|171,172,173,174,0,175,176,177,0,178,179,180,181,182,0,183,184,185,186|187,188,189,190,0,191,192,193,194,0,195,196,197,198,199,0,200,201,202|203,204,205,206,207,0,208,209,210,211,0,212,213,214,215,216,217,218,219|0,0,0,220,221,222,0,223,224,225,226,0,0,227,228,229,0,0,0|230,231,232,233,234,235,236,237,0,238,239,240,241,242,243,244,245,246,247|248,249,250,251,0,252,253,254,255,0,256,257,258,259,0,260,261,262,263|264,265,266,267,0,268,269,270,271,0,272,273,274,275,0,276,277,278,279|280,281,282,283,0,284,285,286,287,0,288,289,290,291,0,292,293,294,295|];
int: num_letters = 26;
array [1..num_letters] of string: letters = ["a","b","c","d","e","f","g","h","i","j","k","l","m","n","o","p","q","r","s","t","u","v","w","x","y","z"];
int: N = 295;
array [0..N] of int: L;
string: problem_name = "19.08, 19 x 19";
