benchmarks/crosswords/mzn/crossword3_27.res
REGULAR
REGULAR
REGULAR
REGULAR
REGULAR
REGULAR
REGULAR
REGULAR
REGULAR
REGULAR
REGULAR
REGULAR
REGULAR
REGULAR
REGULAR
REGULAR
REGULAR
REGULAR
REGULAR
REGULAR
REGULAR
REGULAR
REGULAR
REGULAR
REGULAR
REGULAR
REGULAR
REGULAR
REGULAR
REGULAR
REGULAR
REGULAR
REGULAR
REGULAR
REGULAR
REGULAR
REGULAR
REGULAR
REGULAR
REGULAR
REGULAR
REGULAR
REGULAR
REGULAR
REGULAR
REGULAR
REGULAR
REGULAR
REGULAR
REGULAR
REGULAR
REGULAR
REGULAR
REGULAR
REGULAR
REGULAR
REGULAR
REGULAR
REGULAR
REGULAR
REGULAR
REGULAR
REGULAR
REGULAR
REGULAR
REGULAR
REGULAR
REGULAR
REGULAR
REGULAR
REGULAR
REGULAR
REGULAR
REGULAR
REGULAR
REGULAR
REGULAR
REGULAR
REGULAR
REGULAR
REGULAR
REGULAR
REGULAR
REGULAR
REGULAR
REGULAR
REGULAR
REGULAR
REGULAR
REGULAR
REGULAR
REGULAR
REGULAR
REGULAR
REGULAR
REGULAR
REGULAR
REGULAR
REGULAR
REGULAR
REGULAR
REGULAR
REGULAR
REGULAR
REGULAR
REGULAR
REGULAR
REGULAR
REGULAR
REGULAR
REGULAR
REGULAR
REGULAR
REGULAR
REGULAR
REGULAR
REGULAR
REGULAR
REGULAR
REGULAR
REGULAR
REGULAR
REGULAR
REGULAR
REGULAR
REGULAR
REGULAR
REGULAR
REGULAR
REGULAR
L = array1d(0..295, [1, 15, 13, 5, 4, 7, 1, 18, 4, 4, 18, 5, 14, 1, 14, 5, 7, 19, 5, 11, 5, 14, 18, 1, 5, 5, 9, 13, 1, 4, 9, 22, 15, 5, 20, 1, 19, 9, 1, 8, 20, 12, 15, 1, 7, 9, 21, 1, 13, 16, 9, 8, 19, 5, 12, 20, 20, 1, 2, 20, 14, 1, 5, 7, 18, 5, 19, 5, 5, 4, 13, 1, 18, 20, 19, 20, 9, 14, 9, 16, 25, 12, 15, 20, 19, 4, 9, 1, 13, 1, 18, 4, 21, 1, 1, 12, 15, 11, 15, 16, 1, 11, 19, 2, 1, 20, 2, 1, 1, 19, 18, 1, 20, 19, 4, 5, 18, 1, 4, 1, 4, 1, 15, 12, 19, 15, 20, 3, 1, 5, 18, 19, 11, 14, 9, 12, 5, 14, 9, 12, 3, 5, 18, 7, 5, 11, 15, 1, 22, 1, 4, 7, 1, 12, 14, 1, 5, 1, 8, 3, 1, 14, 1, 7, 5, 13, 13, 15, 4, 15, 19, 1, 13, 18, 9, 25, 12, 19, 4, 5, 4, 1, 12, 12, 1, 5, 18, 5, 12, 15, 18, 5, 12, 1, 25, 12, 5, 13, 1, 3, 5, 12, 1, 4, 5, 3, 18, 1, 5, 20, 1, 2, 3, 9, 20, 3, 5, 12, 3, 5, 1, 12, 1, 19, 11, 1, 25, 5, 1, 13, 19, 12, 1, 3, 9, 8, 20, 5, 12, 12, 9, 11, 12, 25, 21, 8, 3, 19, 4, 5, 5, 19, 15, 16, 12, 1, 25, 22, 14, 5, 8, 1, 5, 25, 4, 5, 18, 9, 12, 5, 5, 6, 12, 5, 9, 11, 24, 5, 12, 1, 1, 18, 1, 13, 1, 12, 3, 21, 19, 4, 15, 19, 5, 12, 1, 2]);
----------

%%  runtime:       15.799 (15799.574 ms)
%%  solvetime:     3.840 (3840.758 ms)
%%  solutions:     1
%%  variables:     28721
%%  propagators:   36940
%%  propagations:  2383888
%%  nodes:         1456
%%  failures:      664
%%  restarts:      0
%%  peak depth:    138

GECODE_TUPLESET_MEM
GECODE_TUPLESET_MEM
GECODE_TUPLESET_MEM
GECODE_TUPLESET_MEM
GECODE_TUPLESET_MEM
GECODE_TUPLESET_MEM
GECODE_TUPLESET_MEM
GECODE_TUPLESET_MEM
GECODE_TUPLESET_MEM
GECODE_TUPLESET_MEM
GECODE_TUPLESET_MEM
GECODE_TUPLESET_MEM
GECODE_TUPLESET_MEM
GECODE_TUPLESET_MEM
GECODE_TUPLESET_MEM
GECODE_TUPLESET_MEM
GECODE_TUPLESET_MEM
GECODE_TUPLESET_MEM
GECODE_TUPLESET_MEM
GECODE_TUPLESET_MEM
GECODE_TUPLESET_MEM
GECODE_TUPLESET_MEM
GECODE_TUPLESET_MEM
GECODE_TUPLESET_MEM
GECODE_TUPLESET_MEM
GECODE_TUPLESET_MEM
GECODE_TUPLESET_MEM
GECODE_TUPLESET_MEM
GECODE_TUPLESET_MEM
GECODE_TUPLESET_MEM
GECODE_TUPLESET_MEM
GECODE_TUPLESET_MEM
GECODE_TUPLESET_MEM
GECODE_TUPLESET_MEM
GECODE_TUPLESET_MEM
GECODE_TUPLESET_MEM
GECODE_TUPLESET_MEM
GECODE_TUPLESET_MEM
GECODE_TUPLESET_MEM
GECODE_TUPLESET_MEM
GECODE_TUPLESET_MEM
GECODE_TUPLESET_MEM
GECODE_TUPLESET_MEM
GECODE_TUPLESET_MEM
GECODE_TUPLESET_MEM
GECODE_TUPLESET_MEM
GECODE_TUPLESET_MEM
GECODE_TUPLESET_MEM
GECODE_TUPLESET_MEM
GECODE_TUPLESET_MEM
GECODE_TUPLESET_MEM
GECODE_TUPLESET_MEM
GECODE_TUPLESET_MEM
GECODE_TUPLESET_MEM
GECODE_TUPLESET_MEM
GECODE_TUPLESET_MEM
GECODE_TUPLESET_MEM
GECODE_TUPLESET_MEM
GECODE_TUPLESET_MEM
GECODE_TUPLESET_MEM
GECODE_TUPLESET_MEM
GECODE_TUPLESET_MEM
GECODE_TUPLESET_MEM
GECODE_TUPLESET_MEM
GECODE_TUPLESET_MEM
GECODE_TUPLESET_MEM
GECODE_TUPLESET_MEM
GECODE_TUPLESET_MEM
GECODE_TUPLESET_MEM
GECODE_TUPLESET_MEM
GECODE_TUPLESET_MEM
GECODE_TUPLESET_MEM
GECODE_TUPLESET_MEM
GECODE_TUPLESET_MEM
GECODE_TUPLESET_MEM
GECODE_TUPLESET_MEM
GECODE_TUPLESET_MEM
GECODE_TUPLESET_MEM
GECODE_TUPLESET_MEM
GECODE_TUPLESET_MEM
GECODE_TUPLESET_MEM
GECODE_TUPLESET_MEM
GECODE_TUPLESET_MEM
GECODE_TUPLESET_MEM
GECODE_TUPLESET_MEM
GECODE_TUPLESET_MEM
GECODE_TUPLESET_MEM
GECODE_TUPLESET_MEM
GECODE_TUPLESET_MEM
GECODE_TUPLESET_MEM
GECODE_TUPLESET_MEM
GECODE_TUPLESET_MEM
GECODE_TUPLESET_MEM
GECODE_TUPLESET_MEM
GECODE_TUPLESET_MEM
GECODE_TUPLESET_MEM
GECODE_TUPLESET_MEM
GECODE_TUPLESET_MEM
GECODE_TUPLESET_MEM
GECODE_TUPLESET_MEM
GECODE_TUPLESET_MEM
GECODE_TUPLESET_MEM
GECODE_TUPLESET_MEM
GECODE_TUPLESET_MEM
GECODE_TUPLESET_MEM
GECODE_TUPLESET_MEM
GECODE_TUPLESET_MEM
GECODE_TUPLESET_MEM
GECODE_TUPLESET_MEM
GECODE_TUPLESET_MEM
GECODE_TUPLESET_MEM
GECODE_TUPLESET_MEM
GECODE_TUPLESET_MEM
GECODE_TUPLESET_MEM
GECODE_TUPLESET_MEM
GECODE_TUPLESET_MEM
GECODE_TUPLESET_MEM
GECODE_TUPLESET_MEM
GECODE_TUPLESET_MEM
GECODE_TUPLESET_MEM
GECODE_TUPLESET_MEM
GECODE_TUPLESET_MEM
GECODE_TUPLESET_MEM
GECODE_TUPLESET_MEM
GECODE_TUPLESET_MEM
GECODE_TUPLESET_MEM
GECODE_TUPLESET_MEM
GECODE_TUPLESET_MEM
GECODE_TUPLESET_MEM
GECODE_TUPLESET_MEM
L = array1d(0..295, [1, 3, 12, 1, 4, 3, 1, 12, 11, 15, 16, 5, 12, 12, 1, 19, 20, 18, 5, 4, 15, 1, 12, 15, 5, 4, 1, 12, 9, 15, 14, 5, 19, 1, 7, 5, 4, 2, 1, 18, 2, 4, 21, 13, 2, 12, 1, 18, 1, 13, 15, 14, 15, 13, 1, 14, 9, 1, 3, 12, 15, 25, 1, 12, 12, 5, 18, 13, 1, 18, 2, 1, 2, 5, 1, 4, 15, 14, 4, 10, 1, 13, 5, 14, 1, 2, 1, 20, 8, 1, 2, 18, 1, 13, 1, 18, 1, 1, 20, 1, 18, 9, 1, 20, 5, 19, 18, 5, 14, 15, 20, 1, 13, 16, 19, 13, 15, 3, 11, 5, 18, 5, 9, 14, 20, 15, 5, 2, 2, 5, 4, 5, 13, 9, 12, 5, 2, 1, 18, 7, 1, 9, 14, 1, 9, 4, 1, 12, 1, 13, 15, 13, 3, 9, 13, 1, 18, 3, 5, 1, 21, 25, 21, 3, 3, 1, 1, 4, 13, 1, 14, 1, 7, 21, 5, 9, 3, 5, 19, 5, 5, 16, 19, 1, 9, 4, 5, 18, 5, 5, 6, 19, 12, 1, 13, 5, 1, 19, 5, 4, 3, 1, 20, 9, 19, 19, 21, 5, 1, 18, 1, 2, 14, 5, 22, 1, 4, 1, 14, 19, 12, 1, 2, 12, 5, 1, 14, 5, 18, 1, 11, 15, 8, 12, 18, 1, 2, 9, 4, 15, 13, 9, 14, 5, 5, 18, 5, 4, 18, 8, 5, 5, 2, 1, 5, 26, 13, 1, 12, 20, 13, 1, 25, 15, 15, 9, 12, 19, 1, 12, 19, 15, 1, 14, 11, 8, 15, 7, 18, 5, 3, 15, 12, 20, 18, 9, 20, 5, 4, 9, 19, 19, 14, 1, 25, 19]);
----------

%%  runtime:       1.385 (1385.417 ms)
%%  solvetime:     0.172 (172.757 ms)
%%  solutions:     1
%%  variables:     28721
%%  propagators:   36940
%%  propagations:  268187
%%  nodes:         124
%%  failures:      5
%%  restarts:      0
%%  peak depth:    118

GECODE_TUPLESET_SPEED
GECODE_TUPLESET_SPEED
GECODE_TUPLESET_SPEED
GECODE_TUPLESET_SPEED
GECODE_TUPLESET_SPEED
GECODE_TUPLESET_SPEED
GECODE_TUPLESET_SPEED
GECODE_TUPLESET_SPEED
GECODE_TUPLESET_SPEED
GECODE_TUPLESET_SPEED
GECODE_TUPLESET_SPEED
GECODE_TUPLESET_SPEED
GECODE_TUPLESET_SPEED
GECODE_TUPLESET_SPEED
GECODE_TUPLESET_SPEED
GECODE_TUPLESET_SPEED
GECODE_TUPLESET_SPEED
GECODE_TUPLESET_SPEED
GECODE_TUPLESET_SPEED
GECODE_TUPLESET_SPEED
GECODE_TUPLESET_SPEED
GECODE_TUPLESET_SPEED
GECODE_TUPLESET_SPEED
GECODE_TUPLESET_SPEED
GECODE_TUPLESET_SPEED
GECODE_TUPLESET_SPEED
GECODE_TUPLESET_SPEED
GECODE_TUPLESET_SPEED
GECODE_TUPLESET_SPEED
GECODE_TUPLESET_SPEED
GECODE_TUPLESET_SPEED
GECODE_TUPLESET_SPEED
GECODE_TUPLESET_SPEED
GECODE_TUPLESET_SPEED
GECODE_TUPLESET_SPEED
GECODE_TUPLESET_SPEED
GECODE_TUPLESET_SPEED
GECODE_TUPLESET_SPEED
GECODE_TUPLESET_SPEED
GECODE_TUPLESET_SPEED
GECODE_TUPLESET_SPEED
GECODE_TUPLESET_SPEED
GECODE_TUPLESET_SPEED
GECODE_TUPLESET_SPEED
GECODE_TUPLESET_SPEED
GECODE_TUPLESET_SPEED
GECODE_TUPLESET_SPEED
GECODE_TUPLESET_SPEED
GECODE_TUPLESET_SPEED
GECODE_TUPLESET_SPEED
GECODE_TUPLESET_SPEED
GECODE_TUPLESET_SPEED
GECODE_TUPLESET_SPEED
GECODE_TUPLESET_SPEED
GECODE_TUPLESET_SPEED
GECODE_TUPLESET_SPEED
GECODE_TUPLESET_SPEED
GECODE_TUPLESET_SPEED
GECODE_TUPLESET_SPEED
GECODE_TUPLESET_SPEED
GECODE_TUPLESET_SPEED
GECODE_TUPLESET_SPEED
GECODE_TUPLESET_SPEED
GECODE_TUPLESET_SPEED
GECODE_TUPLESET_SPEED
GECODE_TUPLESET_SPEED
GECODE_TUPLESET_SPEED
GECODE_TUPLESET_SPEED
GECODE_TUPLESET_SPEED
GECODE_TUPLESET_SPEED
GECODE_TUPLESET_SPEED
GECODE_TUPLESET_SPEED
GECODE_TUPLESET_SPEED
GECODE_TUPLESET_SPEED
GECODE_TUPLESET_SPEED
GECODE_TUPLESET_SPEED
GECODE_TUPLESET_SPEED
GECODE_TUPLESET_SPEED
GECODE_TUPLESET_SPEED
GECODE_TUPLESET_SPEED
GECODE_TUPLESET_SPEED
GECODE_TUPLESET_SPEED
GECODE_TUPLESET_SPEED
GECODE_TUPLESET_SPEED
GECODE_TUPLESET_SPEED
GECODE_TUPLESET_SPEED
GECODE_TUPLESET_SPEED
GECODE_TUPLESET_SPEED
GECODE_TUPLESET_SPEED
GECODE_TUPLESET_SPEED
GECODE_TUPLESET_SPEED
GECODE_TUPLESET_SPEED
GECODE_TUPLESET_SPEED
GECODE_TUPLESET_SPEED
GECODE_TUPLESET_SPEED
GECODE_TUPLESET_SPEED
GECODE_TUPLESET_SPEED
GECODE_TUPLESET_SPEED
GECODE_TUPLESET_SPEED
GECODE_TUPLESET_SPEED
GECODE_TUPLESET_SPEED
GECODE_TUPLESET_SPEED
GECODE_TUPLESET_SPEED
GECODE_TUPLESET_SPEED
GECODE_TUPLESET_SPEED
GECODE_TUPLESET_SPEED
GECODE_TUPLESET_SPEED
GECODE_TUPLESET_SPEED
GECODE_TUPLESET_SPEED
GECODE_TUPLESET_SPEED
GECODE_TUPLESET_SPEED
GECODE_TUPLESET_SPEED
GECODE_TUPLESET_SPEED
GECODE_TUPLESET_SPEED
GECODE_TUPLESET_SPEED
GECODE_TUPLESET_SPEED
GECODE_TUPLESET_SPEED
GECODE_TUPLESET_SPEED
GECODE_TUPLESET_SPEED
GECODE_TUPLESET_SPEED
GECODE_TUPLESET_SPEED
GECODE_TUPLESET_SPEED
GECODE_TUPLESET_SPEED
GECODE_TUPLESET_SPEED
GECODE_TUPLESET_SPEED
GECODE_TUPLESET_SPEED
GECODE_TUPLESET_SPEED
GECODE_TUPLESET_SPEED
GECODE_TUPLESET_SPEED
GECODE_TUPLESET_SPEED
L = array1d(0..295, [1, 3, 12, 1, 4, 3, 1, 12, 11, 15, 16, 5, 12, 12, 1, 19, 20, 18, 5, 4, 15, 1, 12, 15, 5, 4, 1, 12, 9, 15, 14, 5, 19, 1, 7, 5, 4, 2, 1, 18, 2, 4, 21, 13, 2, 12, 1, 18, 1, 13, 15, 14, 15, 13, 1, 14, 9, 1, 3, 12, 15, 25, 1, 12, 12, 5, 18, 13, 1, 18, 2, 1, 2, 5, 1, 4, 15, 14, 4, 10, 1, 13, 5, 14, 1, 2, 1, 20, 8, 1, 2, 18, 1, 13, 1, 18, 1, 1, 20, 1, 18, 9, 1, 20, 5, 19, 18, 5, 14, 15, 20, 1, 13, 16, 19, 13, 15, 3, 11, 5, 18, 5, 9, 14, 20, 15, 5, 2, 2, 5, 4, 5, 13, 9, 12, 5, 2, 1, 18, 7, 1, 9, 14, 1, 9, 4, 1, 12, 1, 13, 15, 13, 3, 9, 13, 1, 18, 3, 5, 1, 21, 25, 21, 3, 3, 1, 1, 4, 13, 1, 14, 1, 7, 21, 5, 9, 3, 5, 19, 5, 5, 16, 19, 1, 9, 4, 5, 18, 5, 5, 6, 19, 12, 1, 13, 5, 1, 19, 5, 4, 3, 1, 20, 9, 19, 19, 21, 5, 1, 18, 1, 2, 14, 5, 22, 1, 4, 1, 14, 19, 12, 1, 2, 12, 5, 1, 14, 5, 18, 1, 11, 15, 8, 12, 18, 1, 2, 9, 4, 15, 13, 9, 14, 5, 5, 18, 5, 4, 18, 8, 5, 5, 2, 1, 5, 26, 13, 1, 12, 20, 13, 1, 25, 15, 15, 9, 12, 19, 1, 12, 19, 15, 1, 14, 11, 8, 15, 7, 18, 5, 3, 15, 12, 20, 18, 9, 20, 5, 4, 9, 19, 19, 14, 1, 25, 19]);
----------

%%  runtime:       1.349 (1349.920 ms)
%%  solvetime:     0.166 (166.049 ms)
%%  solutions:     1
%%  variables:     28721
%%  propagators:   36940
%%  propagations:  270105
%%  nodes:         124
%%  failures:      5
%%  restarts:      0
%%  peak depth:    118

COMPACT_TABLE
COMPACT_TABLE
COMPACT_TABLE
COMPACT_TABLE
COMPACT_TABLE
COMPACT_TABLE
COMPACT_TABLE
COMPACT_TABLE
COMPACT_TABLE
COMPACT_TABLE
COMPACT_TABLE
COMPACT_TABLE
COMPACT_TABLE
COMPACT_TABLE
COMPACT_TABLE
COMPACT_TABLE
COMPACT_TABLE
COMPACT_TABLE
COMPACT_TABLE
COMPACT_TABLE
COMPACT_TABLE
COMPACT_TABLE
COMPACT_TABLE
COMPACT_TABLE
COMPACT_TABLE
COMPACT_TABLE
COMPACT_TABLE
COMPACT_TABLE
COMPACT_TABLE
COMPACT_TABLE
COMPACT_TABLE
COMPACT_TABLE
COMPACT_TABLE
COMPACT_TABLE
COMPACT_TABLE
COMPACT_TABLE
COMPACT_TABLE
COMPACT_TABLE
COMPACT_TABLE
COMPACT_TABLE
COMPACT_TABLE
COMPACT_TABLE
COMPACT_TABLE
COMPACT_TABLE
COMPACT_TABLE
COMPACT_TABLE
COMPACT_TABLE
COMPACT_TABLE
COMPACT_TABLE
COMPACT_TABLE
COMPACT_TABLE
COMPACT_TABLE
COMPACT_TABLE
COMPACT_TABLE
COMPACT_TABLE
COMPACT_TABLE
COMPACT_TABLE
COMPACT_TABLE
COMPACT_TABLE
COMPACT_TABLE
COMPACT_TABLE
COMPACT_TABLE
COMPACT_TABLE
COMPACT_TABLE
COMPACT_TABLE
COMPACT_TABLE
COMPACT_TABLE
COMPACT_TABLE
COMPACT_TABLE
COMPACT_TABLE
COMPACT_TABLE
COMPACT_TABLE
COMPACT_TABLE
COMPACT_TABLE
COMPACT_TABLE
COMPACT_TABLE
COMPACT_TABLE
COMPACT_TABLE
COMPACT_TABLE
COMPACT_TABLE
COMPACT_TABLE
COMPACT_TABLE
COMPACT_TABLE
COMPACT_TABLE
COMPACT_TABLE
COMPACT_TABLE
COMPACT_TABLE
COMPACT_TABLE
COMPACT_TABLE
COMPACT_TABLE
COMPACT_TABLE
COMPACT_TABLE
COMPACT_TABLE
COMPACT_TABLE
COMPACT_TABLE
COMPACT_TABLE
COMPACT_TABLE
COMPACT_TABLE
COMPACT_TABLE
COMPACT_TABLE
COMPACT_TABLE
COMPACT_TABLE
COMPACT_TABLE
COMPACT_TABLE
COMPACT_TABLE
COMPACT_TABLE
COMPACT_TABLE
COMPACT_TABLE
COMPACT_TABLE
COMPACT_TABLE
COMPACT_TABLE
COMPACT_TABLE
COMPACT_TABLE
COMPACT_TABLE
COMPACT_TABLE
COMPACT_TABLE
COMPACT_TABLE
COMPACT_TABLE
COMPACT_TABLE
COMPACT_TABLE
COMPACT_TABLE
COMPACT_TABLE
COMPACT_TABLE
COMPACT_TABLE
COMPACT_TABLE
COMPACT_TABLE
COMPACT_TABLE
COMPACT_TABLE
COMPACT_TABLE
COMPACT_TABLE
L = array1d(0..295, [1, 3, 12, 1, 4, 3, 1, 12, 11, 15, 16, 5, 12, 12, 1, 19, 20, 18, 5, 4, 15, 1, 12, 15, 5, 4, 1, 12, 9, 15, 14, 5, 19, 1, 7, 5, 4, 2, 1, 18, 2, 4, 21, 13, 2, 12, 1, 18, 1, 13, 15, 14, 15, 13, 1, 14, 9, 1, 3, 12, 15, 25, 1, 12, 12, 5, 18, 13, 1, 18, 2, 1, 2, 5, 1, 4, 15, 14, 4, 10, 1, 13, 5, 14, 1, 2, 1, 20, 8, 1, 2, 18, 1, 13, 1, 18, 1, 1, 20, 1, 18, 9, 1, 20, 5, 19, 18, 5, 14, 15, 20, 1, 13, 16, 19, 13, 15, 3, 11, 5, 18, 5, 9, 14, 20, 15, 5, 2, 2, 5, 4, 5, 13, 9, 12, 5, 2, 1, 18, 7, 1, 9, 14, 1, 9, 4, 1, 12, 1, 13, 15, 13, 3, 9, 13, 1, 18, 3, 5, 1, 21, 25, 21, 3, 3, 1, 1, 4, 13, 1, 14, 1, 7, 21, 5, 9, 3, 5, 19, 5, 5, 16, 19, 1, 9, 4, 5, 18, 5, 5, 6, 19, 12, 1, 13, 5, 1, 19, 5, 4, 3, 1, 20, 9, 19, 19, 21, 5, 1, 18, 1, 2, 14, 5, 22, 1, 4, 1, 14, 19, 12, 1, 2, 12, 5, 1, 14, 5, 18, 1, 11, 15, 8, 12, 18, 1, 2, 9, 4, 15, 13, 9, 14, 5, 5, 18, 5, 4, 18, 8, 5, 5, 2, 1, 5, 26, 13, 1, 12, 20, 13, 1, 25, 15, 15, 9, 12, 19, 1, 12, 19, 15, 1, 14, 11, 8, 15, 7, 18, 5, 3, 15, 12, 20, 18, 9, 20, 5, 4, 9, 19, 19, 14, 1, 25, 19]);
----------

%%  runtime:       1.679 (1679.854 ms)
%%  solvetime:     0.135 (135.232 ms)
%%  solutions:     1
%%  variables:     28721
%%  propagators:   36940
%%  propagations:  268232
%%  nodes:         124
%%  failures:      5
%%  restarts:      0
%%  peak depth:    118

